NAME: concorde11
TYPE: TSP
COMMENT: Generated by CCutil_writetsplib
COMMENT: Write called for by Concorde GUI
DIMENSION: 11
EDGE_WEIGHT_TYPE: EUC_2D
NODE_COORD_SECTION
1 5.681818 63.860370
2 11.850649 83.983573
3 13.798701 65.092402
4 16.883117 40.451745
5 23.782468 56.262834
6 25.000000 31.211499
7 29.951299 41.683778
8 31.331169 25.256674
9 37.175325 37.577002
10 39.935065 19.096509
11 46.834416 29.979466
